64
120
96	3
95	2
94	2
93	1
91	1
90	1
88	1
87	2
85	3
84	2
83	1
81	1
79	3
78	2
74	3
70	3
69	2
68	1
66	1
63	1
62	1
61	1
60	3
59	1
58	1
56	1
55	1
54	3
52	1
51	1
50	4
49	1
48	1
47	3
46	2
45	1
43	1
42	1
41	1
40	2
39	3
37	1
36	2
35	1
34	1
33	2
32	1
31	1
29	1
28	1
26	1
25	1
24	1
23	1
22	1
21	1
20	2
19	4
18	2
17	1
16	1
15	1
14	1
12	1
